
Gurobi 10.0.1 (linux64) logging started Wed 12 Jul 2023 11:27:32 PM CDT

Set parameter LogFile to value "/home/dlcole3/graph_abstraction/plasmoexamples/SHP_serial/SHP_reserve_requirements/gurobi_logs/logfile2.log"
Set parameter NodefileStart to value 0.0005
Set parameter TimeLimit to value 36000
Gurobi Optimizer version 10.0.1 build v10.0.1rc0 (linux64)

CPU model: Intel(R) Xeon(R) CPU E5-2698 v4 @ 2.20GHz, instruction set [SSE2|AVX|AVX2]
Thread count: 40 physical cores, 80 logical processors, using up to 8 threads


Warning: excessive time spent in model updates.
Consider calling update less frequently.

Optimize a model with 1103654 rows, 641709 columns and 4636589 nonzeros
Model fingerprint: 0x11eeb815
Variable types: 599982 continuous, 41727 integer (41727 binary)
Coefficient statistics:
  Matrix range     [5e-02, 2e+04]
  Objective range  [2e-01, 8e+04]
  Bounds range     [5e-02, 2e+04]
  RHS range        [7e-06, 7e+03]
Presolve removed 262479 rows and 110108 columns (presolve time = 5s) ...
Presolve removed 270518 rows and 116812 columns (presolve time = 10s) ...
Presolve removed 276105 rows and 117101 columns (presolve time = 15s) ...
Presolve removed 278272 rows and 119851 columns (presolve time = 20s) ...
Presolve removed 283805 rows and 124313 columns (presolve time = 25s) ...
Presolve removed 285836 rows and 124337 columns (presolve time = 30s) ...
Presolve removed 288450 rows and 124495 columns (presolve time = 35s) ...
Presolve removed 289056 rows and 124909 columns (presolve time = 40s) ...
Presolve removed 289066 rows and 124929 columns (presolve time = 45s) ...
Presolve removed 289096 rows and 124959 columns (presolve time = 50s) ...
Presolve removed 289396 rows and 124979 columns (presolve time = 55s) ...
Sparsify removed 143232 nonzeros (4%)
Presolve removed 289396 rows and 175806 columns (presolve time = 60s) ...
Presolve removed 289396 rows and 123948 columns
Presolve time: 61.13s
Presolved: 814258 rows, 517761 columns, 3928588 nonzeros
Variable types: 483977 continuous, 33784 integer (33737 binary)

Deterministic concurrent LP optimizer: primal simplex, dual simplex, and barrier
Showing barrier log only...

Root barrier log...

Elapsed ordering time = 6s
Elapsed ordering time = 24s
Elapsed ordering time = 26s
Elapsed ordering time = 30s
Elapsed ordering time = 35s
Elapsed ordering time = 40s
Elapsed ordering time = 46s
Elapsed ordering time = 51s
Elapsed ordering time = 55s
Elapsed ordering time = 60s
Elapsed ordering time = 66s
Elapsed ordering time = 71s
Elapsed ordering time = 75s
Elapsed ordering time = 80s
Elapsed ordering time = 88s
Elapsed ordering time = 90s
Elapsed ordering time = 95s
Elapsed ordering time = 100s
Ordering time: 106.92s

Barrier statistics:
 Dense cols : 120
 AA' NZ     : 2.342e+07
 Factor NZ  : 3.502e+08 (roughly 3.4 GB of memory)
 Factor Ops : 1.629e+12 (roughly 30 seconds per iteration)
 Threads    : 5

                  Objective                Residual
Iter       Primal          Dual         Primal    Dual     Compl     Time
   0  -2.17897130e+11 -1.80819525e+13  1.22e+04 2.12e+04  1.14e+08   200s
   1  -1.84887689e+11 -1.50888261e+13  1.08e+04 2.45e+07  9.17e+07   215s
   2  -1.20230561e+11 -1.32707882e+13  7.35e+03 1.47e+07  6.36e+07   236s
   3  -7.73208257e+10 -8.94071452e+12  5.02e+03 5.47e+06  4.00e+07   256s
   4  -3.46032225e+10 -4.76208755e+12  2.45e+03 7.26e+04  1.85e+07   277s
   5  -7.14485268e+09 -2.03910302e+12  7.90e+02 2.20e+02  5.84e+06   299s
   6   2.89430764e+09 -9.75722587e+11  2.00e+02 2.05e+01  1.62e+06   323s
   7   5.27834985e+09 -3.84748927e+11  7.29e+01 4.95e-01  5.11e+05   343s
   8   5.63495188e+09 -1.60274728e+11  2.21e+01 1.27e-01  1.55e+05   359s
   9   3.98268020e+09 -5.85264189e+10  8.63e+00 3.86e-02  5.00e+04   375s
  10   1.31928556e+09 -1.87391600e+10  2.52e+00 1.28e-02  1.38e+04   392s
  11   2.29214906e+08 -3.01724821e+09  2.58e-01 2.86e-03  1.98e+03   411s
  12   8.41113641e+07 -3.83241088e+08  2.87e-04 2.61e-04  2.72e+02   429s
  13   6.81728317e+07 -7.74160894e+07  2.48e-05 1.11e-04  8.47e+01   446s
  14   5.92150081e+07 -1.52545153e+06  6.83e-06 4.69e-05  3.53e+01   470s
  15   5.40999185e+07  2.57031416e+07  3.66e-06 2.06e-05  1.65e+01   493s
  16   4.92327739e+07  4.26661769e+07  1.92e-06 4.58e-06  3.82e+00   513s
  17   4.80557501e+07  4.47475816e+07  1.40e-06 2.18e-06  1.93e+00   529s
  18   4.74802222e+07  4.55102698e+07  1.00e-06 1.18e-06  1.15e+00   547s
  19   4.71310960e+07  4.57499928e+07  6.81e-07 8.56e-07  8.04e-01   563s
  20   4.68310838e+07  4.59971962e+07  4.23e-07 5.27e-07  4.85e-01   579s
  21   4.66668982e+07  4.61153599e+07  2.91e-07 3.61e-07  3.21e-01   595s
  22   4.66255544e+07  4.61688531e+07  2.61e-07 2.96e-07  2.66e-01   611s
  23   4.65449055e+07  4.62384408e+07  1.90e-07 1.89e-07  1.78e-01   627s
  24   4.64419500e+07  4.62795950e+07  8.43e-08 1.33e-07  9.45e-02   645s
  25   4.63895761e+07  4.63078324e+07  1.12e-07 8.41e-08  4.76e-02   671s
  26   4.63724293e+07  4.63307388e+07  2.54e-06 4.45e-08  2.43e-02   691s
  27   4.63664275e+07  4.63419625e+07  2.13e-06 2.55e-08  1.42e-02   709s
  28   4.63648689e+07  4.63450468e+07  1.63e-06 2.03e-08  1.15e-02   727s
  29   4.63612066e+07  4.63534181e+07  8.14e-07 1.69e-08  4.53e-03   745s
  30   4.63585443e+07  4.63563609e+07  2.25e-07 1.82e-08  1.27e-03   762s
  31   4.63579075e+07  4.63575300e+07  9.38e-08 1.81e-08  2.20e-04   781s
  32   4.63576967e+07  4.63576552e+07  3.04e-07 2.53e-08  2.41e-05   798s
  33   4.63576579e+07  4.63576561e+07  2.00e-06 1.30e-08  8.57e-07   814s
  34   4.63576568e+07  4.63576568e+07  1.37e-07 7.94e-08  3.17e-09   830s

Barrier solved model in 34 iterations and 830.16 seconds (607.16 work units)
Optimal objective 4.63576568e+07


Root crossover log...

  319903 DPushes remaining with DInf 0.0000000e+00               832s
  111421 DPushes remaining with DInf 0.0000000e+00               836s
   52529 DPushes remaining with DInf 0.0000000e+00               842s
   27936 DPushes remaining with DInf 0.0000000e+00               845s
   10483 DPushes remaining with DInf 0.0000000e+00               851s
    1516 DPushes remaining with DInf 0.0000000e+00               856s
       0 DPushes remaining with DInf 0.0000000e+00               857s

   21042 PPushes remaining with PInf 0.0000000e+00               858s
   11265 PPushes remaining with PInf 0.0000000e+00               860s
     532 PPushes remaining with PInf 0.0000000e+00               866s
       0 PPushes remaining with PInf 0.0000000e+00               867s

  Push phase complete: Pinf 0.0000000e+00, Dinf 3.9286525e-07    867s


Root simplex log...

Iteration    Objective       Primal Inf.    Dual Inf.      Time
  160781    4.6357657e+07   0.000000e+00   0.000000e+00    869s
  160781    4.6357657e+07   0.000000e+00   1.313799e+03    870s
  161518    4.6357657e+07   0.000000e+00   0.000000e+00    875s
Extra simplex iterations after uncrush: 737
Waiting for other threads to finish...         942s
Waiting for other threads to finish...        1010s
Concurrent spin time: 151.20s (can be avoided by choosing Method=3)

Solved with barrier

Root relaxation: objective 4.635766e+07, 161518 iterations, 959.50 seconds (599.59 work units)
Total elapsed time = 1035.72s
Total elapsed time = 1040.56s

    Nodes    |    Current Node    |     Objective Bounds      |     Work
 Expl Unexpl |  Obj  Depth IntInf | Incumbent    BestBd   Gap | It/Node Time

     0     0 4.6358e+07    0  225          - 4.6358e+07      -     - 1051s
H    0     0                    4.684437e+07 4.6358e+07  1.04%     - 1068s

Explored 1 nodes (161707 simplex iterations) in 1068.58 seconds (662.19 work units)
Thread count was 8 (of 80 available processors)

Solution count 2: 4.68444e+07 4.68444e+07 

Optimal solution found (tolerance 1.00e-01)
Best objective 4.684436501992e+07, best bound 4.635765685143e+07, gap 1.0390%

User-callback calls 177654, time in user-callback 0.56 sec
